32      6       
17      28      22      13      21      21      
0       0       0       0       0       0       0       3       2       3       4       
3       7       5       0       2       0       1       3       7       8       14      
4       0       5       9       0       6       7       3       5       9       16      
1       0       0       0       8       7       0       3       6       11      12      
3       0       4       0       0       8       0       1       21      
8       0       4       0       0       10      0       1       19      
3       2       0       7       0       0       6       3       10      15      23      
4       5       10      0       0       3       4       2       16      22      
6       0       8       0       0       0       5       2       13      31      
5       0       9       6       0       0       0       1       22      
2       1       0       2       0       5       0       1       26      
10      10      10      0       0       0       0       1       25      
7       0       0       9       2       0       0       2       24      30      
5       2       0       6       4       9       4       2       18      20      
4       1       1       0       10      2       9       3       16      17      28      
3       0       1       8       0       0       9       1       19      
1       8       2       0       10      0       0       1       29      
7       0       5       10      0       0       0       1       30      
8       2       0       1       9       8       10      1       31      
7       6       0       0       3       5       2       2       22      28      
2       0       6       9       0       0       0       1       28      
6       2       0       0       0       0       9       1       27      
1       1       0       0       2       0       9       1       31      
9       0       1       0       0       0       0       1       25      
7       0       7       4       0       6       2       1       26      
8       0       1       0       5       2       0       1       27      
7       0       0       7       10      2       0       1       29      
5       0       1       0       0       7       1       1       29      
10      0       0       3       0       6       5       1       32      
7       0       1       0       2       9       0       1       32      
7       0       9       8       6       4       5       1       32      
0       0       0       0       0       0       0       0       